105605
31,39,81,74,34,27,7,82,52,58,67,43,21,4,18,47,20,70,53,45,35,65,19,66,75,25,69,13,61,79,44,72,63,28,9,0,12,36,17,23,30,64,49,3,62,38,51,40,77,68,24,22,54,41,14,60,5,78,29,1,37,15,10,32,26,6,50,71,42,11,2,56,33,48,46,59,80,55,16,76,8,57,73
